SCIP Status        : problem creation / modification
Total Time         :       0.02
  reading          :       0.02
Original Problem   :
  Problem name     : main4.zpl
  Variables        : 2020 (2020 binary, 0 integer, 0 implicit integer, 0 continuous)
  Constraints      : 0 initial, 2120 maximal
  Objective        : minimize, 2020 non-zeros (abs.min = 0.0017, abs.max = 5700)
